5 2 1 8 10 1 4 10 5 -1 
1 -1 3 3 5 4 8 6 4 -1 
-1 -1 2 2 7 5 2 1 4 -1 
10 -1 0 7 2 2 -1 4 1 -1 
8 9 5 3 3 1 8 0 5 -1 
6 0 5 0 4 1 0 -1 2 -1 
9 1 0 3 -1 10 9 6 3 -1 
-1 10 5 9 4 5 4 5 7 -1 
6 2 4 3 -1 9 4 1 8 -1 
5 2 -1 0 6 2 9 -1 9 -1 
-1 2 10 -1 7 7 4 6 2 -1 
10 9 1 2 7 4 10 3 5 -1 
9 10 6 0 8 7 6 10 6 -1 
-1 9 1 5 7 0 1 5 6 -1 
3 -1 3 9 4 9 3 3 10 -1 
8 3 5 4 0 0 7 7 0 -1 
3 0 3 10 9 2 0 10 0 -1 
10 9 9 1 4 0 2 0 6 -1 
5 6 -1 7 -1 9 4 3 -1 -1 
3 6 7 8 -1 5 9 -1 8 -1 
